\ Model Routes
\ LP format - for model browsing. Use MPS format to capture full model detail.
Maximize
  1305.427206194839 R{0,0} + 2363.878024458567 R{0,1}
   + 2363.878024458567 R{0,2} - 249.2301939667805 R{0,3}
   + 234.7650315204939 R{0,4} + 397.2891588355392 R{0,5}
   + 2196.46811856227 R{0,6} + 2380.153189718908 R{0,7}
   + 1740.933047770539 R{0,8} + 2760.556516424141 R{0,9}
   + 1530.897970130088 R{0,10} + 1832.290280111461 R{0,11}
   + 1618.581246142548 R{0,12} + 1924.52164317805 R{0,13}
   + 998.6312742747423 R{0,14} + 1504.03111169388 R{0,15}
   + 2439.996186466882 R{0,16} + 2000.2615627389 R{0,17}
   + 1638.787557624941 R{0,18} + 1878.492110940271 R{0,19}
   + 1553.73434844063 R{0,20} + 590.182372549818 R{0,21}
   + 2193.644302023599 R{0,22} + 1206.239528285252 R{0,23}
   + 1418.511799896643 R{0,24} + 698.6757411342739 R{0,25}
   + 1978.336807121252 R{0,26} - 256.140831891889 R{1,0}
   + 22.55008804458731 R{1,1} + 1141.439937477706 R{1,2}
   + 1141.439937477706 R{1,3} + 625.438562597491 R{1,4}
   + 1514.382881002529 R{1,5} + 968.9683226649061 R{1,6}
   + 810.558358337028 R{1,7} + 587.3727382323488 R{1,8}
   + 1015.602747664576 R{1,9} + 1461.369942992458 R{1,10}
   + 902.7296699237577 R{1,11} + 964.6806172733773 R{1,12}
   + 895.2729503324131 R{1,13} + 926.3484539220494 R{1,14}
   + 1278.216672618359 R{1,15} + 553.0441745741981 R{1,16}
   + 354.3764084682978 R{1,17} + 1070.630654259975 R{1,18}
   + 1283.876898739133 R{1,19} + 444.398194016563 R{1,20}
   + 866.6525087384593 R{1,21} + 113.0626312224127 R{1,22}
   - 278.4443928850388 R{2,0} - 59.13410337035452 R{2,1}
   + 602.7748664658451 R{2,2} + 1100.505917706273 R{2,3}
   + 661.1183809175574 R{2,4} + 481.8339840066735 R{2,5}
   + 916.1855209384714 R{2,6} + 254.2699887389686 R{2,7}
   + 1096.73991411944 R{2,8} + 254.2699887389686 R{2,9}
   + 73.02847583409493 R{2,10} + 746.4192457897301 R{2,11}
   - 260.2482995389823 R{3,0} + 681.6721973521264 R{3,1}
   + 1752.062677924126 R{3,2} + 2113.065395194246 R{3,3}
   + 2202.777607183814 R{3,4} + 1478.90363966129 R{3,5}
   + 2149.155739513301 R{3,6} + 1724.753769271708 R{3,7}
   + 1855.781134974781 R{3,8} + 677.329802567265 R{3,9}
   + 2051.307708323718 R{3,10} + 1255.466301199921 R{3,11}
   + 2297.306351205926 R{3,12} + 1992.737815184474 R{3,13}
   + 1394.530840538975 R{3,14} + 2266.27797575707 R{3,15}
   + 2145.929951608918 R{3,16} + 1430.04143787162 R{3,17}
   + 1014.533841458351 R{3,18} + 251.9525734769839 R{3,19}
   + 924.73196131696 R{3,20} + 951.9500840781279 R{3,21}
   + 618.2908258254437 R{3,22} + 889.443083142608 R{3,23}
   + 948.9667378142749 R{3,24} + 2410.128746202658 R{3,25}
   - 242.5208875955131 R{4,0} + 1055.572474837385 R{4,1}
   + 1576.196574514046 R{4,2} + 1094.135564208969 R{4,3}
   + 718.5016969194101 R{4,4} + 1051.881338787204 R{4,5}
   + 2000.65864490567 R{4,6} + 657.8723811056568 R{4,7}
   + 1764.688870483431 R{4,8} + 1600.37873589961 R{4,9}
   + 1427.515206076762 R{4,10} + 458.9977527027904 R{4,11}
   + 1064.388166124108 R{4,12} + 1917.790454490571 R{4,13}
   + 1156.233121450307 R{4,14} + 778.9476676580994 R{4,15}
   + 1547.67446025144 R{4,16} + 240.5372554727521 R{4,17}
   + 1220.258549113244 R{4,18} + 657.8723811056568 R{4,19}
   + 1018.790357585425 R{4,20} + 563.3151369144741 R{4,21}
   + 443.6067588655657 R{4,22} + 1039.306948076106 R{4,23}
   + 1299.881722672128 R{4,24} + 633.359477503399 R{4,25}
   - 231.9775664337766 R{5,0} - 64.74596882665969 R{5,1}
   + 258.8096919427257 R{5,2} - 67.19312964678366 R{5,3}
   + 66.15940624711106 R{5,4} + 203.70767324294 R{5,5}
   + 762.1932527510471 R{5,6} + 941.3003395755825 R{5,7}
   + 120.5939981731085 R{5,8} + 61.94079476825482 R{5,9}
   + 703.2681921774806 R{5,10} + 275.5394531682317 R{5,11}
   - 231.1436095783099 R{6,0} + 120.1285528432641 R{6,1}
   + 1144.238169502638 R{6,2} + 1709.383530245978 R{6,3}
   + 1227.187047332657 R{6,4} + 1724.013402672666 R{6,5}
   + 302.1176426251683 R{6,6} + 2382.995622878823 R{6,7}
   + 216.7145022258267 R{6,8} + 1364.994833224629 R{6,9}
   + 505.8274471652935 R{6,10} + 143.4554036751832 R{6,11}
   + 1189.039572492756 R{6,12} + 1707.437272859233 R{6,13}
   + 1537.022246820626 R{6,14} + 976.1797378572394 R{6,15}
   + 1970.578698452532 R{6,16} + 903.7442716941141 R{6,17}
   + 921.8488289340039 R{6,18} + 916.0258587545043 R{6,19}
   + 505.8274471652935 R{6,20} + 484.3048791919483 R{6,21}
   + 143.4554036751832 R{6,22} + 1249.256335117135 R{6,23}
   + 1331.692316375136 R{6,24} + 1047.513693394322 R{6,25}
   + 1445.133924506219 R{6,26}
Subject To
 R00: R{0,0} <= 1
 R01: R{0,1} <= 1
 R02: R{0,2} <= 1
 R03: R{0,3} <= 1
 R04: R{0,4} <= 1
 R05: R{0,5} <= 1
 R06: R{0,6} <= 1
 R07: R{0,7} <= 1
 R08: R{0,8} <= 1
 R09: R{0,9} <= 1
 R010: R{0,10} <= 1
 R011: R{0,11} <= 1
 R012: R{0,12} <= 1
 R013: R{0,13} <= 1
 R014: R{0,14} <= 1
 R015: R{0,15} <= 1
 R016: R{0,16} <= 1
 R017: R{0,17} <= 1
 R018: R{0,18} <= 1
 R019: R{0,19} <= 1
 R020: R{0,20} <= 1
 R021: R{0,21} <= 1
 R022: R{0,22} <= 1
 R023: R{0,23} <= 1
 R024: R{0,24} <= 1
 R025: R{0,25} <= 1
 R026: R{0,26} <= 1
 R027: R{1,0} <= 1
 R028: R{1,1} <= 1
 R029: R{1,2} <= 1
 R030: R{1,3} <= 1
 R031: R{1,4} <= 1
 R032: R{1,5} <= 1
 R033: R{1,6} <= 1
 R034: R{1,7} <= 1
 R035: R{1,8} <= 1
 R036: R{1,9} <= 1
 R037: R{1,10} <= 1
 R038: R{1,11} <= 1
 R039: R{1,12} <= 1
 R040: R{1,13} <= 1
 R041: R{1,14} <= 1
 R042: R{1,15} <= 1
 R043: R{1,16} <= 1
 R044: R{1,17} <= 1
 R045: R{1,18} <= 1
 R046: R{1,19} <= 1
 R047: R{1,20} <= 1
 R048: R{1,21} <= 1
 R049: R{1,22} <= 1
 R050: R{2,0} <= 1
 R051: R{2,1} <= 1
 R052: R{2,2} <= 1
 R053: R{2,3} <= 1
 R054: R{2,4} <= 1
 R055: R{2,5} <= 1
 R056: R{2,6} <= 1
 R057: R{2,7} <= 1
 R058: R{2,8} <= 1
 R059: R{2,9} <= 1
 R060: R{2,10} <= 1
 R061: R{2,11} <= 1
 R062: R{3,0} <= 1
 R063: R{3,1} <= 1
 R064: R{3,2} <= 1
 R065: R{3,3} <= 1
 R066: R{3,4} <= 1
 R067: R{3,5} <= 1
 R068: R{3,6} <= 1
 R069: R{3,7} <= 1
 R070: R{3,8} <= 1
 R071: R{3,9} <= 1
 R072: R{3,10} <= 1
 R073: R{3,11} <= 1
 R074: R{3,12} <= 1
 R075: R{3,13} <= 1
 R076: R{3,14} <= 1
 R077: R{3,15} <= 1
 R078: R{3,16} <= 1
 R079: R{3,17} <= 1
 R080: R{3,18} <= 1
 R081: R{3,19} <= 1
 R082: R{3,20} <= 1
 R083: R{3,21} <= 1
 R084: R{3,22} <= 1
 R085: R{3,23} <= 1
 R086: R{3,24} <= 1
 R087: R{3,25} <= 1
 R088: R{4,0} <= 1
 R089: R{4,1} <= 1
 R090: R{4,2} <= 1
 R091: R{4,3} <= 1
 R092: R{4,4} <= 1
 R093: R{4,5} <= 1
 R094: R{4,6} <= 1
 R095: R{4,7} <= 1
 R096: R{4,8} <= 1
 R097: R{4,9} <= 1
 R098: R{4,10} <= 1
 R099: R{4,11} <= 1
 R0100: R{4,12} <= 1
 R0101: R{4,13} <= 1
 R0102: R{4,14} <= 1
 R0103: R{4,15} <= 1
 R0104: R{4,16} <= 1
 R0105: R{4,17} <= 1
 R0106: R{4,18} <= 1
 R0107: R{4,19} <= 1
 R0108: R{4,20} <= 1
 R0109: R{4,21} <= 1
 R0110: R{4,22} <= 1
 R0111: R{4,23} <= 1
 R0112: R{4,24} <= 1
 R0113: R{4,25} <= 1
 R0114: R{5,0} <= 1
 R0115: R{5,1} <= 1
 R0116: R{5,2} <= 1
 R0117: R{5,3} <= 1
 R0118: R{5,4} <= 1
 R0119: R{5,5} <= 1
 R0120: R{5,6} <= 1
 R0121: R{5,7} <= 1
 R0122: R{5,8} <= 1
 R0123: R{5,9} <= 1
 R0124: R{5,10} <= 1
 R0125: R{5,11} <= 1
 R0126: R{6,0} <= 1
 R0127: R{6,1} <= 1
 R0128: R{6,2} <= 1
 R0129: R{6,3} <= 1
 R0130: R{6,4} <= 1
 R0131: R{6,5} <= 1
 R0132: R{6,6} <= 1
 R0133: R{6,7} <= 1
 R0134: R{6,8} <= 1
 R0135: R{6,9} <= 1
 R0136: R{6,10} <= 1
 R0137: R{6,11} <= 1
 R0138: R{6,12} <= 1
 R0139: R{6,13} <= 1
 R0140: R{6,14} <= 1
 R0141: R{6,15} <= 1
 R0142: R{6,16} <= 1
 R0143: R{6,17} <= 1
 R0144: R{6,18} <= 1
 R0145: R{6,19} <= 1
 R0146: R{6,20} <= 1
 R0147: R{6,21} <= 1
 R0148: R{6,22} <= 1
 R0149: R{6,23} <= 1
 R0150: R{6,24} <= 1
 R0151: R{6,25} <= 1
 R0152: R{6,26} <= 1
 R1_0: R{0,0} + R{0,1} + R{0,2} + R{0,3} + R{0,4} + R{0,5} + R{0,6}
   + R{0,7} + R{0,8} + R{0,9} + R{0,10} + R{0,11} + R{0,12} + R{0,13}
   + R{0,14} + R{0,15} + R{0,16} + R{0,17} + R{0,18} + R{0,19} + R{0,20}
   + R{0,21} + R{0,22} + R{0,23} + R{0,24} + R{0,25} + R{0,26} <= 1
 R1_1: R{1,0} + R{1,1} + R{1,2} + R{1,3} + R{1,4} + R{1,5} + R{1,6}
   + R{1,7} + R{1,8} + R{1,9} + R{1,10} + R{1,11} + R{1,12} + R{1,13}
   + R{1,14} + R{1,15} + R{1,16} + R{1,17} + R{1,18} + R{1,19} + R{1,20}
   + R{1,21} + R{1,22} <= 1
 R1_2: R{2,0} + R{2,1} + R{2,2} + R{2,3} + R{2,4} + R{2,5} + R{2,6}
   + R{2,7} + R{2,8} + R{2,9} + R{2,10} + R{2,11} <= 1
 R1_3: R{3,0} + R{3,1} + R{3,2} + R{3,3} + R{3,4} + R{3,5} + R{3,6}
   + R{3,7} + R{3,8} + R{3,9} + R{3,10} + R{3,11} + R{3,12} + R{3,13}
   + R{3,14} + R{3,15} + R{3,16} + R{3,17} + R{3,18} + R{3,19} + R{3,20}
   + R{3,21} + R{3,22} + R{3,23} + R{3,24} + R{3,25} <= 1
 R1_4: R{4,0} + R{4,1} + R{4,2} + R{4,3} + R{4,4} + R{4,5} + R{4,6}
   + R{4,7} + R{4,8} + R{4,9} + R{4,10} + R{4,11} + R{4,12} + R{4,13}
   + R{4,14} + R{4,15} + R{4,16} + R{4,17} + R{4,18} + R{4,19} + R{4,20}
   + R{4,21} + R{4,22} + R{4,23} + R{4,24} + R{4,25} <= 1
 R1_5: R{5,0} + R{5,1} + R{5,2} + R{5,3} + R{5,4} + R{5,5} + R{5,6}
   + R{5,7} + R{5,8} + R{5,9} + R{5,10} + R{5,11} <= 1
 R1_6: R{6,0} + R{6,1} + R{6,2} + R{6,3} + R{6,4} + R{6,5} + R{6,6}
   + R{6,7} + R{6,8} + R{6,9} + R{6,10} + R{6,11} + R{6,12} + R{6,13}
   + R{6,14} + R{6,15} + R{6,16} + R{6,17} + R{6,18} + R{6,19} + R{6,20}
   + R{6,21} + R{6,22} + R{6,23} + R{6,24} + R{6,25} + R{6,26} <= 1
 R2_0: <= 7
 R2_1: 10 R{0,13} + 10 R{0,22} + 10 R{1,8} + 10 R{2,6} + 10 R{3,1}
   + 10 R{3,2} + 10 R{3,3} + 10 R{3,4} + 10 R{3,5} + 10 R{3,6} + 10 R{3,7}
   + 10 R{3,8} + 10 R{3,10} + 10 R{3,13} + 10 R{3,14} + 10 R{3,15}
   + 10 R{3,16} + 10 R{3,17} + 10 R{3,18} + 10 R{3,21} + 10 R{3,25} <= 10
 R2_2: <= 0
 R2_3: 4 R{0,7} + 4 R{0,16} + 4 R{0,19} + 4 R{0,20} + 4 R{0,23} + 4 R{0,26}
   + 4 R{5,1} + 4 R{5,2} + 4 R{5,3} + 4 R{5,7} + 4 R{5,10} <= 4
 R2_4: <= 0
 R2_5: 5 R{5,1} + 5 R{5,2} + 5 R{5,4} + 5 R{5,8} + 5 R{5,11} <= 5
 R2_6: 10 R{1,14} + 10 R{2,8} + 10 R{5,5} + 10 R{6,1} + 10 R{6,2}
   + 10 R{6,3} + 10 R{6,4} + 10 R{6,5} + 10 R{6,7} + 10 R{6,9} + 10 R{6,12}
   + 10 R{6,14} + 10 R{6,16} + 10 R{6,17} + 10 R{6,18} + 10 R{6,23}
   + 10 R{6,24} <= 10
 R2_7: <= 0
 R2_8: <= 0
 R2_9: 12 R{1,21} + 12 R{4,1} + 12 R{4,2} + 12 R{4,3} + 12 R{4,4}
   + 12 R{4,5} + 12 R{4,6} + 12 R{4,7} + 12 R{4,9} + 12 R{4,10}
   + 12 R{4,11} + 12 R{4,12} + 12 R{4,14} + 12 R{4,15} + 12 R{4,17}
   + 12 R{4,18} + 12 R{4,19} + 12 R{4,21} + 12 R{4,22} + 12 R{4,23}
   + 12 R{4,24} + 12 R{4,25} <= 12
 R2_10: 8 R{3,4} + 8 R{3,14} + 8 R{6,1} + 8 R{6,2} + 8 R{6,3} + 8 R{6,4}
   + 8 R{6,7} + 8 R{6,12} + 8 R{6,16} + 8 R{6,23} + 8 R{6,24} + 8 R{6,26}
   <= 8
 R2_11: 15 R{0,19} + 15 R{0,20} + 15 R{1,20} + 15 R{3,15} + 15 R{3,16}
   <= 15
 R2_12: <= 0
 R2_13: <= 0
 R2_14: <= 0
 R2_15: 11 R{0,0} + 11 R{0,1} + 11 R{0,2} + 11 R{0,8} + 11 R{0,10}
   + 11 R{0,14} + 11 R{0,18} + 11 R{0,25} + 11 R{4,1} + 11 R{4,2}
   + 11 R{4,3} + 11 R{4,4} <= 11
 R2_16: 5 R{0,11} + 5 R{0,15} + 5 R{0,22} + 5 R{0,23} + 5 R{0,26}
   + 5 R{1,15} + 5 R{1,19} + 5 R{1,21} + 5 R{4,21} <= 5
 R2_17: 10 R{1,10} + 5 R{1,12} + 5 R{1,13} + 5 R{1,15} + 11 R{1,16}
   + 11 R{1,18} + 5 R{1,21} + 11 R{3,4} + 11 R{3,14} + 11 R{3,25}
   + 11 R{6,4} + 11 R{6,7} + 11 R{6,16} + 11 R{6,26} <= 11
 R2_18: 5 R{0,21} <= 5
 R2_19: 11 R{0,6} + 11 R{0,7} + 11 R{0,16} + 11 R{0,22} + 11 R{0,24}
   + 11 R{1,4} + 11 R{1,6} + 11 R{1,9} + 11 R{2,7} + 11 R{2,9} + 11 R{2,10}
   + 11 R{2,11} + 11 R{3,23} + 11 R{4,1} + 11 R{4,2} + 11 R{4,3}
   + 11 R{4,6} + 11 R{4,9} + 11 R{4,10} + 11 R{4,12} + 11 R{4,14}
   + 11 R{4,16} + 11 R{4,23} + 11 R{4,24} <= 11
 R2_20: 13 R{0,5} + 13 R{0,8} + 13 R{0,10} + 13 R{0,18} + 13 R{1,5}
   + 13 R{1,6} + 13 R{1,11} + 13 R{2,3} + 13 R{3,1} + 13 R{3,2} + 13 R{3,3}
   + 13 R{3,5} + 13 R{3,6} + 13 R{3,7} + 13 R{3,8} + 13 R{3,9} + 13 R{3,10}
   + 13 R{3,12} + 13 R{3,13} + 13 R{3,17} + 13 R{3,21} + 13 R{3,22}
   + 13 R{3,23} + 13 R{3,24} + 13 R{5,2} + 13 R{5,7} + 13 R{5,10}
   + 13 R{6,16} + 13 R{6,26} <= 13
 R2_21: <= 0
 R2_22: 10 R{0,21} + 10 R{1,13} + 10 R{1,20} + 10 R{4,12} + 10 R{4,23}
   + 10 R{6,23} <= 10
 R2_23: 14 R{0,9} + 14 R{3,4} + 14 R{3,25} + 14 R{4,6} + 14 R{4,8}
   + 14 R{4,13} + 14 R{4,20} + 14 R{6,2} + 14 R{6,3} + 14 R{6,4}
   + 14 R{6,5} + 14 R{6,7} + 14 R{6,9} + 14 R{6,13} + 14 R{6,15}
   + 14 R{6,16} + 14 R{6,23} + 14 R{6,24} <= 14
 R2_24: <= 10
 R2_25: 13 R{0,0} + 13 R{0,1} + 13 R{0,2} + 13 R{0,6} + 13 R{0,7}
   + 13 R{0,8} + 13 R{0,9} + 13 R{0,10} + 13 R{0,11} + 13 R{0,12}
   + 13 R{0,13} + 13 R{0,14} + 13 R{0,16} + 13 R{0,17} + 13 R{0,18}
   + 13 R{0,19} + 13 R{0,20} + 13 R{0,21} + 13 R{0,22} + 13 R{0,23}
   + 13 R{0,24} + 13 R{0,25} + 13 R{0,26} + 13 R{4,1} + 13 R{4,2}
   + 13 R{4,3} + 13 R{4,4} + 13 R{4,5} + 13 R{4,7} + 13 R{4,9} + 13 R{4,10}
   + 13 R{4,14} + 13 R{4,15} + 13 R{4,18} + 13 R{4,19} <= 13
 R2_26: 6 R{0,9} + 6 R{0,11} + 6 R{0,12} + 6 R{0,15} + 6 R{0,17} + 6 R{1,1}
   + 6 R{1,2} + 6 R{1,3} + 6 R{1,4} + 6 R{1,5} + 6 R{1,7} + 6 R{1,8}
   + 6 R{1,9} + 6 R{1,14} + 6 R{2,8} + 6 R{5,11} <= 6
 R2_27: 5 R{0,12} + 5 R{0,16} + 5 R{0,17} + 5 R{0,26} + 5 R{1,2} + 5 R{1,3}
   + 5 R{1,5} + 5 R{1,6} + 5 R{1,8} + 5 R{1,10} + 5 R{1,12} + 5 R{1,13}
   + 5 R{1,16} + 5 R{1,17} + 5 R{1,18} + 5 R{1,22} + 5 R{3,4} + 5 R{3,13}
   + 5 R{3,14} + 5 R{3,20} + 5 R{3,25} + 5 R{4,6} + 5 R{4,8} + 5 R{4,13}
   + 5 R{4,16} + 5 R{5,10} + 5 R{6,4} + 5 R{6,7} + 5 R{6,9} + 5 R{6,12}
   + 5 R{6,13} + 5 R{6,15} + 5 R{6,16} + 5 R{6,19} + 5 R{6,24} + 5 R{6,25}
   + 5 R{6,26} <= 5
 R2_28: <= 0
 R2_29: <= 0
 R2_30: <= 0
 R2_31: 6 R{6,1} + 6 R{6,2} + 6 R{6,4} + 6 R{6,6} + 6 R{6,9} + 6 R{6,15}
   + 6 R{6,18} + 6 R{6,23} + 6 R{6,24} + 6 R{6,25} <= 6
 R2_32: 7 R{0,4} + 7 R{0,5} + 7 R{0,6} + 7 R{0,13} + 7 R{5,4} + 7 R{5,5}
   + 7 R{5,6} + 7 R{5,8} + 7 R{5,9} <= 7
 R2_33: 12 R{0,15} + 12 R{1,17} + 12 R{3,21} + 12 R{3,23} + 12 R{3,24}
   + 12 R{5,11} <= 12
 R2_34: 5 R{0,0} + 5 R{0,1} + 5 R{0,2} + 5 R{0,6} + 5 R{0,7} + 5 R{0,8}
   + 5 R{0,9} + 5 R{0,10} + 5 R{0,12} + 5 R{0,13} + 5 R{0,16} + 5 R{0,18}
   + 5 R{0,19} + 5 R{0,20} + 5 R{0,22} + 5 R{0,26} + 5 R{1,10} + 5 R{1,15}
   + 5 R{1,19} + 5 R{3,25} + 5 R{6,14} + 5 R{6,18} <= 5
 R2_35: 13 R{5,11} <= 13
 R2_36: 15 R{1,1} + 15 R{1,2} + 15 R{1,3} <= 16
 R2_37: 5 R{5,1} + 5 R{5,3} + 5 R{5,4} + 5 R{5,6} + 5 R{5,8} + 5 R{5,9}
   + 5 R{5,11} <= 5
 R2_38: <= 0
 R2_39: 15 R{0,0} + 15 R{0,1} + 15 R{0,2} + 15 R{0,6} + 15 R{0,8}
   + 15 R{0,10} + 15 R{0,13} + 15 R{0,14} + 15 R{0,18} + 15 R{0,21}
   + 15 R{0,22} + 15 R{0,25} <= 17
 R2_40: 15 R{0,7} + 15 R{0,16} + 15 R{0,19} + 15 R{0,20} + 15 R{0,23}
   + 15 R{0,26} + 15 R{2,1} + 15 R{2,2} + 15 R{2,3} + 15 R{2,4} + 15 R{2,6}
   + 15 R{2,7} + 15 R{2,8} + 15 R{2,9} <= 15
 R2_41: 5 R{0,0} + 5 R{0,1} + 5 R{0,2} + 5 R{0,7} + 5 R{0,8} + 5 R{0,9}
   + 5 R{0,12} + 5 R{0,14} + 5 R{0,16} + 5 R{0,17} + 5 R{0,18} + 5 R{0,19}
   + 5 R{0,20} + 5 R{0,22} + 5 R{0,23} + 5 R{0,25} + 5 R{0,26} + 5 R{1,10}
   + 5 R{3,2} + 5 R{3,3} + 5 R{3,5} + 5 R{3,6} + 5 R{3,8} + 5 R{3,9}
   + 5 R{3,11} + 5 R{3,17} + 5 R{3,19} + 5 R{4,6} + 5 R{4,8} + 5 R{4,13}
   + 5 R{4,16} + 5 R{4,20} + 5 R{4,22} + 5 R{4,24} + 5 R{6,10} + 5 R{6,20}
   + 5 R{6,24} <= 5
 R2_42: 4 R{2,1} + 4 R{2,2} + 4 R{2,3} + 4 R{2,4} + 4 R{2,5} + 4 R{2,6}
   + 4 R{2,8} <= 4
 R2_43: <= 0
 R2_44: <= 0
 R2_45: <= 0
 R2_46: 9 R{0,7} + 9 R{0,16} + 9 R{1,15} + 9 R{1,19} + 9 R{1,21} + 9 R{4,5}
   + 9 R{4,10} + 9 R{4,14} + 9 R{6,7} + 9 R{6,16} <= 9
 R2_47: 7 R{0,0} + 7 R{0,1} + 7 R{0,2} + 7 R{0,8} + 7 R{0,9} + 7 R{0,12}
   + 7 R{0,14} + 7 R{0,21} + 7 R{0,25} + 7 R{1,1} + 7 R{1,2} + 7 R{1,3}
   <= 7
 R2_48: 4 R{4,1} + 4 R{4,2} + 4 R{4,3} + 4 R{4,4} + 4 R{4,5} + 4 R{4,6}
   + 4 R{4,7} + 4 R{4,8} + 4 R{4,9} + 4 R{4,10} + 4 R{4,11} + 4 R{4,12}
   + 4 R{4,14} + 4 R{4,16} + 4 R{4,18} + 4 R{4,19} + 4 R{4,24} + 4 R{4,25}
   + 4 R{6,26} <= 4
 R2_49: <= 0
 R2_50: <= 0
 R2_51: <= 11
 R2_52: 10 R{4,20} + 10 R{4,21} + 10 R{4,22} + 10 R{4,24} + 10 R{4,25}
   <= 10
 R2_53: 13 R{4,1} + 13 R{4,2} + 13 R{4,3} + 13 R{4,4} + 13 R{4,5}
   + 13 R{4,9} + 13 R{4,10} + 13 R{4,12} + 13 R{4,15} + 13 R{4,18} <= 13
 R2_54: 9 R{3,1} + 9 R{3,2} + 9 R{3,3} + 9 R{3,4} + 9 R{3,5} + 9 R{3,6}
   + 9 R{3,7} + 9 R{3,8} + 9 R{3,9} + 9 R{3,10} + 9 R{3,11} + 9 R{3,12}
   + 9 R{3,13} + 9 R{3,14} + 9 R{3,15} + 9 R{3,16} + 9 R{3,17} + 9 R{3,18}
   + 9 R{3,19} + 9 R{3,20} + 9 R{3,21} + 9 R{3,22} + 9 R{3,24} + 9 R{3,25}
   <= 9
 R2_55: <= 0
 R2_56: 6 R{0,1} + 6 R{0,2} + 6 R{0,7} + 6 R{0,9} + 6 R{0,11} + 6 R{0,15}
   + 6 R{0,19} + 6 R{0,20} + 6 R{0,24} + 6 R{1,19} + 6 R{3,2} + 6 R{3,3}
   + 6 R{3,4} + 6 R{3,5} + 6 R{3,6} + 6 R{3,7} + 6 R{3,8} + 6 R{3,10}
   + 6 R{3,11} + 6 R{3,12} + 6 R{3,13} + 6 R{3,14} + 6 R{3,15} + 6 R{3,16}
   + 6 R{3,25} + 6 R{4,7} + 6 R{4,11} + 6 R{4,17} + 6 R{4,19} + 6 R{4,23}
   + 6 R{4,25} + 6 R{6,2} + 6 R{6,3} + 6 R{6,5} + 6 R{6,6} + 6 R{6,8}
   + 6 R{6,10} + 6 R{6,11} + 6 R{6,14} + 6 R{6,18} + 6 R{6,20} + 6 R{6,22}
   + 6 R{6,25} <= 6
 R2_57: <= 0
 R2_58: <= 0
 R2_59: 10 R{0,6} + 10 R{0,13} + 10 R{0,22} + 10 R{1,12} + 10 R{1,15}
   + 10 R{1,21} + 10 R{3,7} + 10 R{3,10} + 10 R{3,12} + 10 R{3,13}
   + 10 R{3,15} + 10 R{3,16} <= 10
 R2_60: <= 0
 R2_61: 9 R{1,10} + 9 R{1,12} + 9 R{1,13} + 9 R{1,15} + 9 R{1,19}
   + 9 R{1,20} + 9 R{4,8} + 9 R{4,13} + 9 R{4,16} + 9 R{4,20} + 9 R{4,21}
   + 9 R{6,15} + 9 R{6,23} <= 9
 R2_62: <= 0
 R2_63: <= 0
 R2_64: <= 0
 R2_65: <= 5
 R2_66: <= 0
 R2_67: 3 R{0,9} + 3 R{0,12} + 3 R{0,17} + 3 R{3,2} + 3 R{3,3} + 3 R{3,4}
   + 3 R{3,6} + 3 R{3,7} + 3 R{3,8} + 3 R{3,10} + 3 R{3,12} + 3 R{3,13}
   + 3 R{3,14} + 3 R{3,15} + 3 R{3,16} + 3 R{3,17} + 3 R{3,24} + 3 R{3,25}
   + 3 R{6,9} + 3 R{6,13} + 3 R{6,25} + 3 R{6,26} <= 3
 R2_68: 6 R{1,7} + 6 R{4,1} + 6 R{4,3} + 6 R{4,4} + 6 R{4,5} + 6 R{4,6}
   + 6 R{4,8} + 6 R{4,10} + 6 R{4,12} + 6 R{4,24} <= 6
 R2_69: 7 R{0,0} + 7 R{0,1} + 7 R{0,2} + 7 R{0,6} + 7 R{0,8} + 7 R{0,10}
   + 7 R{0,13} + 7 R{0,14} + 7 R{0,22} + 7 R{1,10} + 7 R{1,12} + 7 R{1,13}
   + 7 R{1,16} + 7 R{4,1} + 7 R{4,2} + 7 R{4,3} + 7 R{4,4} + 7 R{4,5}
   + 7 R{4,6} + 7 R{4,8} + 7 R{4,9} + 7 R{4,10} + 7 R{4,12} + 7 R{4,14}
   + 7 R{4,16} + 7 R{4,18} + 7 R{4,23} + 7 R{4,24} <= 7
 R2_70: 11 R{6,1} + 11 R{6,2} + 11 R{6,3} + 11 R{6,4} + 11 R{6,5}
   + 11 R{6,6} + 11 R{6,7} + 11 R{6,12} + 11 R{6,17} + 11 R{6,21}
   + 11 R{6,23} <= 11
 R2_71: 7 R{0,18} + 7 R{3,1} + 7 R{3,2} + 7 R{3,3} + 7 R{3,5} + 7 R{3,6}
   + 7 R{3,7} + 7 R{3,8} + 7 R{3,10} + 7 R{3,15} + 7 R{3,17} + 7 R{3,18}
   + 7 R{3,21} + 7 R{3,23} + 7 R{3,24} + 7 R{6,2} + 7 R{6,3} + 7 R{6,5}
   + 7 R{6,7} + 7 R{6,14} + 7 R{6,17} + 7 R{6,18} + 7 R{6,23} <= 7
 R2_72: <= 0
 R2_73: 11 R{0,0} + 11 R{0,1} + 11 R{0,2} + 11 R{0,6} + 11 R{0,7}
   + 11 R{0,8} + 11 R{0,10} + 11 R{0,11} + 11 R{0,14} + 11 R{0,15}
   + 11 R{0,16} + 11 R{0,18} + 11 R{0,19} + 11 R{0,20} + 11 R{0,21}
   + 11 R{0,23} + 11 R{0,24} + 11 R{0,25} + 11 R{0,26} <= 11
 R2_74: <= 5
 R2_75: 8 R{6,1} + 8 R{6,2} + 8 R{6,3} + 8 R{6,4} + 8 R{6,5} + 8 R{6,6}
   + 8 R{6,7} + 8 R{6,8} + 8 R{6,9} + 8 R{6,12} + 8 R{6,13} + 8 R{6,14}
   + 8 R{6,15} + 8 R{6,16} + 8 R{6,17} + 8 R{6,19} + 8 R{6,21} + 8 R{6,23}
   + 8 R{6,25} + 8 R{6,26} <= 8
 R2_76: 12 R{0,4} + 12 R{0,7} + 12 R{0,10} + 12 R{0,11} + 12 R{0,16}
   + 12 R{0,19} + 12 R{0,23} + 12 R{0,26} + 12 R{1,4} + 12 R{3,3}
   + 12 R{3,4} + 12 R{3,6} + 12 R{3,10} + 12 R{3,12} + 12 R{3,22}
   + 12 R{3,25} <= 12
 R2_77: 7 R{0,1} + 7 R{0,2} + 7 R{0,6} + 7 R{0,9} + 7 R{0,11} + 7 R{0,13}
   + 7 R{0,15} + 7 R{0,17} + 7 R{0,24} + 7 R{1,2} + 7 R{1,3} + 7 R{1,5}
   + 7 R{1,7} + 7 R{1,9} + 7 R{1,11} + 7 R{1,14} + 7 R{1,18} + 7 R{2,2}
   + 7 R{2,3} + 7 R{2,4} + 7 R{2,5} + 7 R{2,6} + 7 R{2,8} + 7 R{2,11}
   + 7 R{3,11} + 7 R{3,12} + 7 R{3,15} + 7 R{3,16} + 7 R{3,18} + 7 R{3,20}
   + 7 R{4,2} + 7 R{4,9} + 7 R{4,13} + 7 R{4,15} + 7 R{4,18} + 7 R{5,6}
   + 7 R{5,7} + 7 R{6,3} + 7 R{6,5} + 7 R{6,7} + 7 R{6,12} + 7 R{6,13}
   + 7 R{6,14} + 7 R{6,17} + 7 R{6,19} + 7 R{6,21} <= 7
Bounds
End
